Route #1: 1 29 35 15 43 58 12 64 38 17 2 11 1
Route #2: 1 20 25 44 53 27 55 6 47 1
Route #3: 1 8 28 66 56 61 5 48 26 30 3 1
Route #4: 1 32 19 54 10 31 7 52 4 16 45 1
Route #5: 1 41 39 9 60 21 46 36 14 42 59 1
Route #6: 1 22 68 65 62 34 50 69 1
Route #7: 1 23 13 67 24 1
Route #8: 1 18 33 37 49 51 1
Route #9: 1 57 40 63 1
cost 1446.4952526979569
